12° run output:
{
    "Function": "kroA1000.tsp",
    "Problem dimension": [
        678,
        978,
        804,
        366,
        997,
        454,
        176,
        644,
        601,
        378,
        45,
        120,
        160,
        650,
        738,
        767,
        30,
        274,
        336,
        946,
        843,
        876,
        640,
        550,
        34,
        634,
        361,
        884,
        81,
        687,
        273,
        781,
        241,
        622,
        344,
        213,
        222,
        995,
        535,
        282,
        431,
        103,
        428,
        734,
        556,
        940,
        885,
        715,
        928,
        419,
        982,
        994,
        389,
        528,
        502,
        613,
        552,
        532,
        412,
        862,
        124,
        512,
        424,
        345,
        267,
        901,
        382,
        353,
        801,
        37,
        545,
        604,
        713,
        595,
        708,
        705,
        921,
        868,
        23,
        623,
        190,
        477,
        156,
        821,
        692,
        397,
        457,
        123,
        346,
        140,
        399,
        663,
        333,
        489,
        911,
        351,
        116,
        179,
        165,
        184,
        686,
        558,
        57,
        360,
        54,
        445,
        28,
        991,
        318,
        181,
        1,
        962,
        166,
        468,
        319,
        279,
        845,
        314,
        900,
        742,
        238,
        957,
        610,
        674,
        606,
        768,
        486,
        18,
        443,
        330,
        717,
        495,
        835,
        811,
        131,
        104,
        698,
        743,
        42,
        465,
        270,
        626,
        739,
        849,
        931,
        440,
        490,
        635,
        983,
        569,
        210,
        779,
        337,
        416,
        576,
        219,
        305,
        246,
        915,
        554,
        661,
        572,
        697,
        138,
        992,
        682,
        113,
        659,
        617,
        842,
        200,
        258,
        720,
        303,
        598,
        735,
        799,
        83,
        848,
        317,
        952,
        976,
        965,
        16,
        608,
        339,
        439,
        851,
        637,
        877,
        446,
        388,
        357,
        484,
        135,
        372,
        285,
        41,
        607,
        974,
        688,
        145,
        775,
        422,
        307,
        218,
        922,
        726,
        80,
        98,
        69,
        605,
        759,
        370,
        392,
        385,
        728,
        664,
        350,
        438,
        522,
        538,
        151,
        624,
        973,
        137,
        764,
        724,
        932,
        214,
        903,
        64,
        46,
        838,
        681,
        300,
        540,
        671,
        631,
        398,
        853,
        930,
        374,
        701,
        860,
        485,
        187,
        302,
        257,
        130,
        704,
        292,
        207,
        331,
        315,
        627,
        240,
        472,
        825,
        747,
        423,
        722,
        955,
        702,
        407,
        752,
        916,
        358,
        893,
        299,
        871,
        590,
        519,
        24,
        275,
        750,
        943,
        861,
        226,
        48,
        186,
        235,
        897,
        783,
        542,
        199,
        587,
        886,
        488,
        619,
        263,
        271,
        58,
        417,
        822,
        354,
        71,
        786,
        371,
        923,
        2,
        790,
        129,
        981,
        492,
        984,
        154,
        224,
        539,
        883,
        188,
        349,
        38,
        88,
        368,
        390,
        82,
        887,
        227,
        612,
        924,
        90,
        913,
        733,
        469,
        251,
        141,
        575,
        128,
        806,
        570,
        411,
        441,
        660,
        159,
        846,
        788,
        244,
        533,
        209,
        751,
        78,
        499,
        459,
        819,
        770,
        987,
        162,
        155,
        125,
        482,
        935,
        185,
        700,
        599,
        341,
        387,
        99,
        979,
        980,
        242,
        716,
        969,
        110,
        567,
        784,
        72,
        577,
        892,
        548,
        655,
        77,
        183,
        841,
        909,
        960,
        813,
        670,
        856,
        520,
        690,
        252,
        975,
        291,
        746,
        818,
        745,
        347,
        927,
        677,
        615,
        555,
        196,
        231,
        19,
        31,
        239,
        964,
        29,
        874,
        536,
        585,
        912,
        172,
        597,
        262,
        316,
        139,
        164,
        35,
        766,
        875,
        96,
        76,
        771,
        685,
        143,
        310,
        850,
        578,
        888,
        364,
        961,
        449,
        496,
        458,
        776,
        298,
        144,
        560,
        500,
        153,
        89,
        857,
        680,
        174,
        114,
        762,
        237,
        109,
        906,
        269,
        195,
        73,
        904,
        55,
        403,
        633,
        264,
        549,
        20,
        167,
        573,
        401,
        515,
        802,
        711,
        672,
        579,
        990,
        958,
        212,
        198,
        986,
        620,
        797,
        323,
        204,
        433,
        313,
        826,
        60,
        501,
        467,
        91,
        614,
        259,
        808,
        381,
        934,
        434,
        173,
        865,
        758,
        800,
        221,
        487,
        272,
        736,
        261,
        363,
        149,
        254,
        429,
        896,
        289,
        478,
        442,
        602,
        504,
        531,
        792,
        649,
        618,
        755,
        834,
        929,
        945,
        899,
        547,
        101,
        97,
        925,
        22,
        203,
        898,
        757,
        731,
        402,
        625,
        630,
        134,
        839,
        256,
        32,
        753,
        10,
        211,
        777,
        494,
        872,
        92,
        464,
        656,
        448,
        255,
        837,
        866,
        410,
        312,
        94,
        586,
        324,
        807,
        189,
        523,
        13,
        787,
        394,
        642,
        453,
        963,
        609,
        543,
        133,
        21,
        470,
        727,
        511,
        534,
        894,
        676,
        115,
        8,
        225,
        948,
        290,
        718,
        277,
        281,
        121,
        507,
        376,
        338,
        526,
        191,
        919,
        118,
        508,
        870,
        529,
        175,
        657,
        566,
        971,
        721,
        170,
        52,
        169,
        525,
        233,
        647,
        651,
        44,
        11,
        12,
        830,
        756,
        475,
        970,
        201,
        947,
        95,
        108,
        400,
        668,
        355,
        161,
        33,
        466,
        452,
        803,
        589,
        409,
        119,
        217,
        3,
        950,
        596,
        266,
        253,
        340,
        335,
        658,
        393,
        111,
        859,
        793,
        405,
        917,
        858,
        265,
        652,
        709,
        513,
        197,
        847,
        966,
        714,
        593,
        780,
        425,
        65,
        580,
        25,
        689,
        56,
        47,
        518,
        365,
        93,
        723,
        427,
        369,
        309,
        574,
        386,
        245,
        248,
        286,
        4,
        43,
        817,
        683,
        641,
        420,
        666,
        306,
        326,
        815,
        926,
        972,
        956,
        329,
        377,
        280,
        863,
        395,
        480,
        933,
        100,
        546,
        476,
        648,
        451,
        561,
        809,
        288,
        455,
        654,
        483,
        132,
        163,
        699,
        51,
        444,
        643,
        505,
        741,
        785,
        882,
        996,
        895,
        373,
        284,
        413,
        450,
        479,
        706,
        645,
        944,
        356,
        182,
        304,
        998,
        150,
        40,
        491,
        79,
        591,
        320,
        205,
        553,
        833,
        890,
        418,
        493,
        514,
        348,
        989,
        594,
        789,
        136,
        426,
        581,
        639,
        375,
        296,
        565,
        63,
        679,
        524,
        117,
        867,
        430,
        914,
        592,
        74,
        234,
        152,
        831,
        541,
        498,
        68,
        9,
        814,
        719,
        732,
        942,
        530,
        820,
        621,
        481,
        748,
        707,
        106,
        49,
        311,
        147,
        168,
        506,
        696,
        638,
        406,
        891,
        977,
        0,
        105,
        559,
        611,
        653,
        59,
        988,
        953,
        432,
        177,
        796,
        70,
        710,
        662,
        669,
        584,
        497,
        206,
        436,
        557,
        667,
        6,
        941,
        600,
        778,
        208,
        918,
        827,
        328,
        936,
        954,
        146,
        823,
        415,
        283,
        112,
        854,
        322,
        544,
        510,
        178,
        404,
        67,
        342,
        297,
        383,
        999,
        321,
        537,
        517,
        564,
        744,
        836,
        760,
        805,
        236,
        473,
        812,
        773,
        343,
        902,
        828,
        832,
        881,
        53,
        516,
        628,
        749,
        951,
        142,
        878,
        937,
        703,
        122,
        571,
        75,
        192,
        193,
        62,
        295,
        84,
        260,
        180,
        910,
        471,
        293,
        869,
        384,
        380,
        844,
        5,
        362,
        616,
        730,
        456,
        959,
        729,
        7,
        276,
        243,
        938,
        447,
        582,
        993,
        87,
        247,
        879,
        665,
        684,
        694,
        907,
        287,
        396,
        967,
        737,
        215,
        636,
        301,
        61,
        791,
        774,
        968,
        14,
        249,
        794,
        278,
        26,
        810,
        86,
        769,
        568,
        695,
        503,
        840,
        367,
        646,
        216,
        294,
        462,
        202,
        148,
        50,
        673,
        17,
        391,
        798,
        194,
        527,
        603,
        949,
        230,
        761,
        359,
        763,
        889,
        332,
        15,
        461,
        632,
        562,
        228,
        551,
        460,
        852,
        829,
        782,
        308,
        85,
        693,
        463,
        725,
        864,
        855,
        232,
        352,
        740,
        765,
        583,
        220,
        816,
        223,
        36,
        873,
        772,
        327,
        158,
        102,
        588,
        27,
        691,
        414,
        563,
        250,
        127,
        66,
        824,
        408,
        629,
        157,
        905,
        268,
        435,
        229,
        920,
        39,
        939,
        712,
        126,
        421,
        107,
        880,
        675,
        334,
        908,
        437,
        521,
        509,
        325,
        171,
        379,
        754,
        474,
        795,
        985
    ],
    "Global Optimum": 0,
    "Algorithm": "Genetic algorithm",
    "Parameters": {
        "population": 30,
        "offspring": 30,
        "mutation probability": 0.001,
        "crossover probability": 0.9
    },
    "Fitness": 1356398,
    "Solution": [
        678,
        978,
        804,
        366,
        997,
        454,
        176,
        644,
        601,
        378,
        45,
        120,
        160,
        650,
        738,
        767,
        30,
        274,
        336,
        946,
        843,
        876,
        640,
        550,
        34,
        634,
        361,
        884,
        81,
        687,
        273,
        781,
        241,
        622,
        344,
        213,
        222,
        995,
        535,
        282,
        431,
        103,
        428,
        734,
        556,
        940,
        885,
        715,
        928,
        419,
        982,
        994,
        389,
        528,
        502,
        613,
        552,
        532,
        412,
        862,
        124,
        512,
        424,
        345,
        267,
        901,
        382,
        353,
        801,
        37,
        545,
        604,
        713,
        595,
        708,
        705,
        921,
        868,
        23,
        623,
        190,
        477,
        156,
        821,
        692,
        397,
        457,
        123,
        346,
        140,
        399,
        663,
        333,
        489,
        911,
        351,
        116,
        179,
        165,
        184,
        686,
        558,
        57,
        360,
        54,
        445,
        28,
        991,
        318,
        181,
        1,
        962,
        166,
        468,
        319,
        279,
        845,
        314,
        900,
        742,
        238,
        957,
        610,
        674,
        606,
        768,
        486,
        18,
        443,
        330,
        717,
        495,
        835,
        811,
        131,
        104,
        698,
        743,
        42,
        465,
        270,
        626,
        739,
        849,
        931,
        440,
        490,
        635,
        983,
        569,
        210,
        779,
        337,
        416,
        576,
        219,
        305,
        246,
        915,
        554,
        661,
        572,
        697,
        138,
        992,
        682,
        113,
        659,
        617,
        842,
        200,
        258,
        720,
        303,
        598,
        735,
        799,
        83,
        848,
        317,
        952,
        976,
        965,
        16,
        608,
        339,
        439,
        851,
        637,
        877,
        446,
        388,
        357,
        484,
        135,
        372,
        285,
        41,
        607,
        974,
        688,
        145,
        775,
        422,
        307,
        218,
        922,
        726,
        80,
        98,
        69,
        605,
        759,
        370,
        392,
        385,
        728,
        664,
        350,
        438,
        522,
        538,
        151,
        624,
        973,
        137,
        764,
        724,
        932,
        214,
        903,
        64,
        46,
        838,
        681,
        300,
        540,
        671,
        631,
        398,
        853,
        930,
        374,
        701,
        860,
        485,
        187,
        302,
        257,
        130,
        704,
        292,
        207,
        331,
        315,
        627,
        240,
        472,
        825,
        747,
        423,
        722,
        955,
        702,
        407,
        752,
        916,
        358,
        893,
        299,
        871,
        590,
        519,
        24,
        275,
        750,
        943,
        861,
        226,
        48,
        186,
        235,
        897,
        783,
        542,
        199,
        587,
        886,
        488,
        619,
        263,
        271,
        58,
        417,
        822,
        354,
        71,
        786,
        371,
        923,
        2,
        790,
        129,
        981,
        492,
        984,
        154,
        224,
        539,
        883,
        188,
        349,
        38,
        88,
        368,
        390,
        82,
        887,
        227,
        612,
        924,
        90,
        913,
        733,
        469,
        251,
        141,
        575,
        128,
        806,
        570,
        411,
        441,
        660,
        159,
        846,
        788,
        244,
        533,
        209,
        751,
        78,
        499,
        459,
        819,
        770,
        987,
        162,
        155,
        125,
        482,
        935,
        185,
        700,
        599,
        341,
        387,
        99,
        979,
        980,
        242,
        716,
        969,
        110,
        567,
        784,
        72,
        577,
        892,
        548,
        655,
        77,
        183,
        841,
        909,
        960,
        813,
        670,
        856,
        520,
        690,
        252,
        975,
        291,
        746,
        818,
        745,
        347,
        927,
        677,
        615,
        555,
        196,
        231,
        19,
        31,
        239,
        964,
        29,
        874,
        536,
        585,
        912,
        172,
        597,
        262,
        316,
        139,
        164,
        35,
        766,
        875,
        96,
        76,
        771,
        685,
        143,
        310,
        850,
        578,
        888,
        364,
        961,
        449,
        496,
        458,
        776,
        298,
        144,
        560,
        500,
        153,
        89,
        857,
        680,
        174,
        114,
        762,
        237,
        109,
        906,
        269,
        195,
        73,
        904,
        55,
        403,
        633,
        264,
        549,
        20,
        167,
        573,
        401,
        515,
        802,
        711,
        672,
        579,
        990,
        958,
        212,
        198,
        986,
        620,
        797,
        323,
        204,
        433,
        313,
        826,
        60,
        501,
        467,
        91,
        614,
        259,
        808,
        381,
        934,
        434,
        173,
        865,
        758,
        800,
        221,
        487,
        272,
        736,
        261,
        363,
        149,
        254,
        429,
        896,
        289,
        478,
        442,
        602,
        504,
        531,
        792,
        649,
        618,
        755,
        834,
        929,
        945,
        899,
        547,
        101,
        97,
        925,
        22,
        203,
        898,
        757,
        731,
        402,
        625,
        630,
        134,
        839,
        256,
        32,
        753,
        10,
        211,
        777,
        494,
        872,
        92,
        464,
        656,
        448,
        255,
        837,
        866,
        410,
        312,
        94,
        586,
        324,
        807,
        189,
        523,
        13,
        787,
        394,
        642,
        453,
        963,
        609,
        543,
        133,
        21,
        470,
        727,
        511,
        534,
        894,
        676,
        115,
        8,
        225,
        948,
        290,
        718,
        277,
        281,
        121,
        507,
        376,
        338,
        526,
        191,
        919,
        118,
        508,
        870,
        529,
        175,
        657,
        566,
        971,
        721,
        170,
        52,
        169,
        525,
        233,
        647,
        651,
        44,
        11,
        12,
        830,
        756,
        475,
        970,
        201,
        947,
        95,
        108,
        400,
        668,
        355,
        161,
        33,
        466,
        452,
        803,
        589,
        409,
        119,
        217,
        3,
        950,
        596,
        266,
        253,
        340,
        335,
        658,
        393,
        111,
        859,
        793,
        405,
        917,
        858,
        265,
        652,
        709,
        513,
        197,
        847,
        966,
        714,
        593,
        780,
        425,
        65,
        580,
        25,
        689,
        56,
        47,
        518,
        365,
        93,
        723,
        427,
        369,
        309,
        574,
        386,
        245,
        248,
        286,
        4,
        43,
        817,
        683,
        641,
        420,
        666,
        306,
        326,
        815,
        926,
        972,
        956,
        329,
        377,
        280,
        863,
        395,
        480,
        933,
        100,
        546,
        476,
        648,
        451,
        561,
        809,
        288,
        455,
        654,
        483,
        132,
        163,
        699,
        51,
        444,
        643,
        505,
        741,
        785,
        882,
        996,
        895,
        373,
        284,
        413,
        450,
        479,
        706,
        645,
        944,
        356,
        182,
        304,
        998,
        150,
        40,
        491,
        79,
        591,
        320,
        205,
        553,
        833,
        890,
        418,
        493,
        514,
        348,
        989,
        594,
        789,
        136,
        426,
        581,
        639,
        375,
        296,
        565,
        63,
        679,
        524,
        117,
        867,
        430,
        914,
        592,
        74,
        234,
        152,
        831,
        541,
        498,
        68,
        9,
        814,
        719,
        732,
        942,
        530,
        820,
        621,
        481,
        748,
        707,
        106,
        49,
        311,
        147,
        168,
        506,
        696,
        638,
        406,
        891,
        977,
        0,
        105,
        559,
        611,
        653,
        59,
        988,
        953,
        432,
        177,
        796,
        70,
        710,
        662,
        669,
        584,
        497,
        206,
        436,
        557,
        667,
        6,
        941,
        600,
        778,
        208,
        918,
        827,
        328,
        936,
        954,
        146,
        823,
        415,
        283,
        112,
        854,
        322,
        544,
        510,
        178,
        404,
        67,
        342,
        297,
        383,
        999,
        321,
        537,
        517,
        564,
        744,
        836,
        760,
        805,
        236,
        473,
        812,
        773,
        343,
        902,
        828,
        832,
        881,
        53,
        516,
        628,
        749,
        951,
        142,
        878,
        937,
        703,
        122,
        571,
        75,
        192,
        193,
        62,
        295,
        84,
        260,
        180,
        910,
        471,
        293,
        869,
        384,
        380,
        844,
        5,
        362,
        616,
        730,
        456,
        959,
        729,
        7,
        276,
        243,
        938,
        447,
        582,
        993,
        87,
        247,
        879,
        665,
        684,
        694,
        907,
        287,
        396,
        967,
        737,
        215,
        636,
        301,
        61,
        791,
        774,
        968,
        14,
        249,
        794,
        278,
        26,
        810,
        86,
        769,
        568,
        695,
        503,
        840,
        367,
        646,
        216,
        294,
        462,
        202,
        148,
        50,
        673,
        17,
        391,
        798,
        194,
        527,
        603,
        949,
        230,
        761,
        359,
        763,
        889,
        332,
        15,
        461,
        632,
        562,
        228,
        551,
        460,
        852,
        829,
        782,
        308,
        85,
        693,
        463,
        725,
        864,
        855,
        232,
        352,
        740,
        765,
        583,
        220,
        816,
        223,
        36,
        873,
        772,
        327,
        158,
        102,
        588,
        27,
        691,
        414,
        563,
        250,
        127,
        66,
        824,
        408,
        629,
        157,
        905,
        268,
        435,
        229,
        920,
        39,
        939,
        712,
        126,
        421,
        107,
        880,
        675,
        334,
        908,
        437,
        521,
        509,
        325,
        171,
        379,
        754,
        474,
        795,
        985
    ],
    "Nb of functions evaluations": 200010,
    "Computational time in seconds": 2866.2345855236053,
    "Stopping criterion in evaluations": 200000
}